
Gurobi 12.0.2 (mac64[arm]) logging started Fri Jun 13 21:54:29 2025

Set parameter LogFile to value "/Users/yurunfeng/Documents/GitHub/LRGTS-store-location/result/gurobi/snyder/15nodes/15-0.9-4.log"
Gurobi Optimizer version 12.0.2 build v12.0.2rc0 (mac64[arm] - Darwin 24.5.0 24F74)

CPU model: Apple M4
Thread count: 10 physical cores, 10 logical processors, using up to 10 threads

Non-default parameters:
TimeLimit  1200

Optimize a model with 4785 rows, 7245 columns and 33600 nonzeros
Model fingerprint: 0x0e2af92c
Variable types: 3615 continuous, 3630 integer (3630 binary)
Coefficient statistics:
  Matrix range     [1e-01, 1e+00]
  Objective range  [7e+03, 3e+06]
  Bounds range     [1e+00, 1e+00]
  RHS range        [1e+00, 4e+00]
Found heuristic solution: objective 1.648316e+07
Presolve removed 488 rows and 240 columns
Presolve time: 0.06s
Presolved: 4297 rows, 7005 columns, 30116 nonzeros
Variable types: 3375 continuous, 3630 integer (3630 binary)

Root relaxation: objective 7.100279e+05, 503 iterations, 0.01 seconds (0.01 work units)

    Nodes    |    Current Node    |     Objective Bounds      |     Work
 Expl Unexpl |  Obj  Depth IntInf | Incumbent    BestBd   Gap | It/Node Time

     0     0 710027.911    0  205 1.6483e+07 710027.911  95.7%     -    0s
H    0     0                    3805436.7806 710027.911  81.3%     -    0s
H    0     0                    1034605.1310 710027.911  31.4%     -    0s
H    0     0                    908164.10388 710027.911  21.8%     -    0s
H    0     0                    894514.22782 710027.911  20.6%     -    0s
H    0     0                    880396.78660 710027.911  19.4%     -    0s
H    0     0                    880395.96933 710027.911  19.4%     -    0s
H    0     0                    878972.69387 710027.911  19.2%     -    0s
H    0     0                    878972.32345 710027.911  19.2%     -    0s
     0     0 729163.554    0  257 878972.323 729163.554  17.0%     -    0s
H    0     0                    878971.52821 729163.554  17.0%     -    0s
H    0     0                    796736.81907 729163.554  8.48%     -    0s
H    0     0                    796736.81356 729163.554  8.48%     -    0s
H    0     0                    789423.50423 729163.554  7.63%     -    0s
     0     0 730838.571    0  259 789423.504 730838.571  7.42%     -    0s
     0     0 732969.205    0  358 789423.504 732969.205  7.15%     -    0s
     0     0 737643.568    0  373 789423.504 737643.568  6.56%     -    0s
     0     0 738872.953    0  394 789423.504 738872.953  6.40%     -    0s
     0     0 738985.183    0  401 789423.504 738985.183  6.39%     -    0s
     0     0 739058.835    0  387 789423.504 739058.835  6.38%     -    0s
     0     0 739226.550    0  409 789423.504 739226.550  6.36%     -    0s
     0     0 739291.214    0  409 789423.504 739291.214  6.35%     -    0s
H    0     0                    767464.80084 740318.035  3.54%     -    0s
     0     0 740318.035    0  440 767464.801 740318.035  3.54%     -    0s
     0     0 741035.198    0  439 767464.801 741035.198  3.44%     -    0s
     0     0 741035.198    0  439 767464.801 741035.198  3.44%     -    0s
     0     0 741035.198    0  265 767464.801 741035.198  3.44%     -    1s
     0     0 741035.198    0  231 767464.801 741035.198  3.44%     -    1s
     0     0 743374.482    0  329 767464.801 743374.482  3.14%     -    1s
H    0     0                    754471.94740 743374.482  1.47%     -    1s
     0     0 744098.748    0  352 754471.947 744098.748  1.37%     -    1s
     0     0 744098.748    0  352 754471.947 744098.748  1.37%     -    1s
     0     0 744320.748    0  355 754471.947 744320.748  1.35%     -    1s
     0     0 744320.748    0  355 754471.947 744320.748  1.35%     -    1s
     0     0 744346.914    0  361 754471.947 744346.914  1.34%     -    1s
     0     0 744732.706    0  338 754471.947 744732.706  1.29%     -    1s
     0     0 744732.706    0  250 754471.947 744732.706  1.29%     -    2s
     0     0 744732.706    0  193 754471.947 744732.706  1.29%     -    2s
     0     0 744732.706    0  251 754471.947 744732.706  1.29%     -    2s
     0     0 745600.290    0  294 754471.947 745600.290  1.18%     -    2s
     0     0 746817.991    0  294 754471.947 746817.991  1.01%     -    2s
     0     0 747083.589    0  290 754471.947 747083.589  0.98%     -    2s
     0     2 747083.589    0  290 754471.947 747083.589  0.98%     -    2s

Cutting planes:
  Cover: 11
  Implied bound: 14
  MIR: 15
  Flow cover: 32
  Inf proof: 2

Explored 4204 nodes (53281 simplex iterations) in 3.43 seconds (5.48 work units)
Thread count was 10 (of 10 available processors)

Solution count 10: 754472 767465 789424 ... 3.80544e+06

Optimal solution found (tolerance 1.00e-04)
Best objective 7.544719474013e+05, best bound 7.544719474013e+05, gap 0.0000%
